p cnf 142 642
c p weight 60 0 0
c p weight -60 1 0
c p weight 61 1 0
c p weight -61 1 0
c p weight 139 -1 0
c p weight -139 1 0
c p weight 142 0.5 0
142 0
-55 0
-53 0
-51 0
-49 0
-47 0
-45 0
-43 0
-41 0
-39 0
-37 0
-35 0
-33 0
-31 0
-29 0
-27 0
-25 0
-23 0
-21 0
-19 0
-17 0
-15 0
-13 0
-11 0
-9 0
-7 0
-5 0
-3 0
-1 0
56 -55 53 0
56 -55 54 0
-56 55 53 0
-56 55 54 0
56 55 -53 -54 0
-56 -55 -53 -54 0
57 53 -54 0
57 -53 54 0
-57 53 54 0
-57 -53 -54 0
58 59 -56 0
58 -56 57 0
-58 59 56 0
-58 56 57 0
58 -56 -53 0
-58 56 -53 0
58 -59 56 53 -57 0
-58 -59 -56 53 -57 0
59 -53 57 0
-59 53 57 0
-60 57 0
59 -60 -53 0
-59 -60 53 0
59 60 53 -57 0
-59 60 -53 -57 0
-61 57 0
59 -61 53 0
-59 -61 -53 0
59 61 -53 -57 0
-59 61 53 -57 0
62 -58 59 0
62 -58 57 0
-62 58 59 0
-62 58 57 0
62 58 -59 -57 0
-62 -58 -59 -57 0
63 59 -57 0
63 -59 57 0
-63 59 57 0
-63 -59 -57 0
64 -62 59 0
64 -62 52 0
-64 62 59 0
-64 62 52 0
64 -62 51 -63 0
64 -62 -51 63 0
-64 62 51 -63 0
-64 62 -51 63 0
64 62 -59 51 63 -52 0
64 62 -59 -51 -63 -52 0
-64 -62 -59 51 63 -52 0
-64 -62 -59 -51 -63 -52 0
66 59 -51 0
66 -59 51 0
-66 59 51 0
-66 -59 -51 0
65 63 -52 0
65 -63 52 0
-65 63 52 0
-65 -63 -52 0
67 -64 66 0
67 -64 50 0
-67 64 66 0
-67 64 50 0
67 -64 49 -52 0
67 -64 -49 52 0
-67 64 49 -52 0
-67 64 -49 52 0
67 64 -66 49 52 -50 0
67 64 -66 -49 -52 -50 0
-67 -64 -66 49 52 -50 0
-67 -64 -66 -49 -52 -50 0
69 66 -49 0
69 -66 49 0
-69 66 49 0
-69 -66 -49 0
68 52 -50 0
68 -52 50 0
-68 52 50 0
-68 -52 -50 0
70 -67 69 0
70 -67 48 0
-70 67 69 0
-70 67 48 0
70 -67 47 -50 0
70 -67 -47 50 0
-70 67 47 -50 0
-70 67 -47 50 0
70 67 -69 47 50 -48 0
70 67 -69 -47 -50 -48 0
-70 -67 -69 47 50 -48 0
-70 -67 -69 -47 -50 -48 0
72 69 -47 0
72 -69 47 0
-72 69 47 0
-72 -69 -47 0
71 50 -48 0
71 -50 48 0
-71 50 48 0
-71 -50 -48 0
73 -70 72 0
73 -70 46 0
-73 70 72 0
-73 70 46 0
73 -70 45 -48 0
73 -70 -45 48 0
-73 70 45 -48 0
-73 70 -45 48 0
73 70 -72 45 48 -46 0
73 70 -72 -45 -48 -46 0
-73 -70 -72 45 48 -46 0
-73 -70 -72 -45 -48 -46 0
75 72 -45 0
75 -72 45 0
-75 72 45 0
-75 -72 -45 0
74 48 -46 0
74 -48 46 0
-74 48 46 0
-74 -48 -46 0
76 -73 75 0
76 -73 44 0
-76 73 75 0
-76 73 44 0
76 -73 43 -46 0
76 -73 -43 46 0
-76 73 43 -46 0
-76 73 -43 46 0
76 73 -75 43 46 -44 0
76 73 -75 -43 -46 -44 0
-76 -73 -75 43 46 -44 0
-76 -73 -75 -43 -46 -44 0
78 75 -43 0
78 -75 43 0
-78 75 43 0
-78 -75 -43 0
77 46 -44 0
77 -46 44 0
-77 46 44 0
-77 -46 -44 0
79 -76 78 0
79 -76 42 0
-79 76 78 0
-79 76 42 0
79 -76 41 -44 0
79 -76 -41 44 0
-79 76 41 -44 0
-79 76 -41 44 0
79 76 -78 41 44 -42 0
79 76 -78 -41 -44 -42 0
-79 -76 -78 41 44 -42 0
-79 -76 -78 -41 -44 -42 0
81 78 -41 0
81 -78 41 0
-81 78 41 0
-81 -78 -41 0
80 44 -42 0
80 -44 42 0
-80 44 42 0
-80 -44 -42 0
82 -79 81 0
82 -79 40 0
-82 79 81 0
-82 79 40 0
82 -79 39 -42 0
82 -79 -39 42 0
-82 79 39 -42 0
-82 79 -39 42 0
82 79 -81 39 42 -40 0
82 79 -81 -39 -42 -40 0
-82 -79 -81 39 42 -40 0
-82 -79 -81 -39 -42 -40 0
84 81 -39 0
84 -81 39 0
-84 81 39 0
-84 -81 -39 0
83 42 -40 0
83 -42 40 0
-83 42 40 0
-83 -42 -40 0
85 -82 84 0
85 -82 38 0
-85 82 84 0
-85 82 38 0
85 -82 37 -40 0
85 -82 -37 40 0
-85 82 37 -40 0
-85 82 -37 40 0
85 82 -84 37 40 -38 0
85 82 -84 -37 -40 -38 0
-85 -82 -84 37 40 -38 0
-85 -82 -84 -37 -40 -38 0
87 84 -37 0
87 -84 37 0
-87 84 37 0
-87 -84 -37 0
86 40 -38 0
86 -40 38 0
-86 40 38 0
-86 -40 -38 0
88 -85 87 0
88 -85 36 0
-88 85 87 0
-88 85 36 0
88 -85 35 -38 0
88 -85 -35 38 0
-88 85 35 -38 0
-88 85 -35 38 0
88 85 -87 35 38 -36 0
88 85 -87 -35 -38 -36 0
-88 -85 -87 35 38 -36 0
-88 -85 -87 -35 -38 -36 0
90 87 -35 0
90 -87 35 0
-90 87 35 0
-90 -87 -35 0
89 38 -36 0
89 -38 36 0
-89 38 36 0
-89 -38 -36 0
91 -88 90 0
91 -88 34 0
-91 88 90 0
-91 88 34 0
91 -88 33 -36 0
91 -88 -33 36 0
-91 88 33 -36 0
-91 88 -33 36 0
91 88 -90 33 36 -34 0
91 88 -90 -33 -36 -34 0
-91 -88 -90 33 36 -34 0
-91 -88 -90 -33 -36 -34 0
93 90 -33 0
93 -90 33 0
-93 90 33 0
-93 -90 -33 0
92 36 -34 0
92 -36 34 0
-92 36 34 0
-92 -36 -34 0
94 -91 93 0
94 -91 32 0
-94 91 93 0
-94 91 32 0
94 -91 31 -34 0
94 -91 -31 34 0
-94 91 31 -34 0
-94 91 -31 34 0
94 91 -93 31 34 -32 0
94 91 -93 -31 -34 -32 0
-94 -91 -93 31 34 -32 0
-94 -91 -93 -31 -34 -32 0
96 93 -31 0
96 -93 31 0
-96 93 31 0
-96 -93 -31 0
95 34 -32 0
95 -34 32 0
-95 34 32 0
-95 -34 -32 0
97 -94 96 0
97 -94 30 0
-97 94 96 0
-97 94 30 0
97 -94 29 -32 0
97 -94 -29 32 0
-97 94 29 -32 0
-97 94 -29 32 0
97 94 -96 29 32 -30 0
97 94 -96 -29 -32 -30 0
-97 -94 -96 29 32 -30 0
-97 -94 -96 -29 -32 -30 0
99 96 -29 0
99 -96 29 0
-99 96 29 0
-99 -96 -29 0
98 32 -30 0
98 -32 30 0
-98 32 30 0
-98 -32 -30 0
100 -97 99 0
100 -97 28 0
-100 97 99 0
-100 97 28 0
100 -97 27 -30 0
100 -97 -27 30 0
-100 97 27 -30 0
-100 97 -27 30 0
100 97 -99 27 30 -28 0
100 97 -99 -27 -30 -28 0
-100 -97 -99 27 30 -28 0
-100 -97 -99 -27 -30 -28 0
102 99 -27 0
102 -99 27 0
-102 99 27 0
-102 -99 -27 0
101 30 -28 0
101 -30 28 0
-101 30 28 0
-101 -30 -28 0
103 -100 102 0
103 -100 26 0
-103 100 102 0
-103 100 26 0
103 -100 25 -28 0
103 -100 -25 28 0
-103 100 25 -28 0
-103 100 -25 28 0
103 100 -102 25 28 -26 0
103 100 -102 -25 -28 -26 0
-103 -100 -102 25 28 -26 0
-103 -100 -102 -25 -28 -26 0
105 102 -25 0
105 -102 25 0
-105 102 25 0
-105 -102 -25 0
104 28 -26 0
104 -28 26 0
-104 28 26 0
-104 -28 -26 0
106 -103 105 0
106 -103 24 0
-106 103 105 0
-106 103 24 0
106 -103 23 -26 0
106 -103 -23 26 0
-106 103 23 -26 0
-106 103 -23 26 0
106 103 -105 23 26 -24 0
106 103 -105 -23 -26 -24 0
-106 -103 -105 23 26 -24 0
-106 -103 -105 -23 -26 -24 0
108 105 -23 0
108 -105 23 0
-108 105 23 0
-108 -105 -23 0
107 26 -24 0
107 -26 24 0
-107 26 24 0
-107 -26 -24 0
109 -106 108 0
109 -106 22 0
-109 106 108 0
-109 106 22 0
109 -106 21 -24 0
109 -106 -21 24 0
-109 106 21 -24 0
-109 106 -21 24 0
109 106 -108 21 24 -22 0
109 106 -108 -21 -24 -22 0
-109 -106 -108 21 24 -22 0
-109 -106 -108 -21 -24 -22 0
111 108 -21 0
111 -108 21 0
-111 108 21 0
-111 -108 -21 0
110 24 -22 0
110 -24 22 0
-110 24 22 0
-110 -24 -22 0
112 -109 111 0
112 -109 20 0
-112 109 111 0
-112 109 20 0
112 -109 19 -22 0
112 -109 -19 22 0
-112 109 19 -22 0
-112 109 -19 22 0
112 109 -111 19 22 -20 0
112 109 -111 -19 -22 -20 0
-112 -109 -111 19 22 -20 0
-112 -109 -111 -19 -22 -20 0
114 111 -19 0
114 -111 19 0
-114 111 19 0
-114 -111 -19 0
113 22 -20 0
113 -22 20 0
-113 22 20 0
-113 -22 -20 0
115 -112 114 0
115 -112 18 0
-115 112 114 0
-115 112 18 0
115 -112 17 -20 0
115 -112 -17 20 0
-115 112 17 -20 0
-115 112 -17 20 0
115 112 -114 17 20 -18 0
115 112 -114 -17 -20 -18 0
-115 -112 -114 17 20 -18 0
-115 -112 -114 -17 -20 -18 0
117 114 -17 0
117 -114 17 0
-117 114 17 0
-117 -114 -17 0
116 20 -18 0
116 -20 18 0
-116 20 18 0
-116 -20 -18 0
118 -115 117 0
118 -115 16 0
-118 115 117 0
-118 115 16 0
118 -115 15 -18 0
118 -115 -15 18 0
-118 115 15 -18 0
-118 115 -15 18 0
118 115 -117 15 18 -16 0
118 115 -117 -15 -18 -16 0
-118 -115 -117 15 18 -16 0
-118 -115 -117 -15 -18 -16 0
120 117 -15 0
120 -117 15 0
-120 117 15 0
-120 -117 -15 0
119 18 -16 0
119 -18 16 0
-119 18 16 0
-119 -18 -16 0
121 -118 120 0
121 -118 14 0
-121 118 120 0
-121 118 14 0
121 -118 13 -16 0
121 -118 -13 16 0
-121 118 13 -16 0
-121 118 -13 16 0
121 118 -120 13 16 -14 0
121 118 -120 -13 -16 -14 0
-121 -118 -120 13 16 -14 0
-121 -118 -120 -13 -16 -14 0
123 120 -13 0
123 -120 13 0
-123 120 13 0
-123 -120 -13 0
122 16 -14 0
122 -16 14 0
-122 16 14 0
-122 -16 -14 0
124 -121 123 0
124 -121 12 0
-124 121 123 0
-124 121 12 0
124 -121 11 -14 0
124 -121 -11 14 0
-124 121 11 -14 0
-124 121 -11 14 0
124 121 -123 11 14 -12 0
124 121 -123 -11 -14 -12 0
-124 -121 -123 11 14 -12 0
-124 -121 -123 -11 -14 -12 0
126 123 -11 0
126 -123 11 0
-126 123 11 0
-126 -123 -11 0
125 14 -12 0
125 -14 12 0
-125 14 12 0
-125 -14 -12 0
127 -124 126 0
127 -124 10 0
-127 124 126 0
-127 124 10 0
127 -124 9 -12 0
127 -124 -9 12 0
-127 124 9 -12 0
-127 124 -9 12 0
127 124 -126 9 12 -10 0
127 124 -126 -9 -12 -10 0
-127 -124 -126 9 12 -10 0
-127 -124 -126 -9 -12 -10 0
129 126 -9 0
129 -126 9 0
-129 126 9 0
-129 -126 -9 0
128 12 -10 0
128 -12 10 0
-128 12 10 0
-128 -12 -10 0
130 -127 129 0
130 -127 8 0
-130 127 129 0
-130 127 8 0
130 -127 7 -10 0
130 -127 -7 10 0
-130 127 7 -10 0
-130 127 -7 10 0
130 127 -129 7 10 -8 0
130 127 -129 -7 -10 -8 0
-130 -127 -129 7 10 -8 0
-130 -127 -129 -7 -10 -8 0
132 129 -7 0
132 -129 7 0
-132 129 7 0
-132 -129 -7 0
131 10 -8 0
131 -10 8 0
-131 10 8 0
-131 -10 -8 0
133 -130 132 0
133 -130 6 0
-133 130 132 0
-133 130 6 0
133 -130 5 -8 0
133 -130 -5 8 0
-133 130 5 -8 0
-133 130 -5 8 0
133 130 -132 5 8 -6 0
133 130 -132 -5 -8 -6 0
-133 -130 -132 5 8 -6 0
-133 -130 -132 -5 -8 -6 0
135 132 -5 0
135 -132 5 0
-135 132 5 0
-135 -132 -5 0
134 8 -6 0
134 -8 6 0
-134 8 6 0
-134 -8 -6 0
136 -133 135 0
136 -133 4 0
-136 133 135 0
-136 133 4 0
136 -133 3 -6 0
136 -133 -3 6 0
-136 133 3 -6 0
-136 133 -3 6 0
136 133 -135 3 6 -4 0
136 133 -135 -3 -6 -4 0
-136 -133 -135 3 6 -4 0
-136 -133 -135 -3 -6 -4 0
138 135 -3 0
138 -135 3 0
-138 135 3 0
-138 -135 -3 0
137 6 -4 0
137 -6 4 0
-137 6 4 0
-137 -6 -4 0
139 -136 138 0
139 -136 2 0
-139 136 138 0
-139 136 2 0
139 -136 1 -4 0
139 -136 -1 4 0
-139 136 1 -4 0
-139 136 -1 4 0
139 136 -138 1 4 -2 0
139 136 -138 -1 -4 -2 0
-139 -136 -138 1 4 -2 0
-139 -136 -138 -1 -4 -2 0
141 138 -1 0
141 -138 1 0
-141 138 1 0
-141 -138 -1 0
140 4 -2 0
140 -4 2 0
-140 4 2 0
-140 -4 -2 0
-141 0
-138 0
-140 0
-135 0
-137 0
-132 0
-134 0
-129 0
-131 0
-126 0
-128 0
-123 0
-125 0
-120 0
-122 0
-117 0
-119 0
-114 0
-116 0
-111 0
-113 0
-108 0
-110 0
-105 0
-107 0
-102 0
-104 0
-99 0
-101 0
-96 0
-98 0
-93 0
-95 0
-90 0
-92 0
-87 0
-89 0
-84 0
-86 0
-81 0
-83 0
-78 0
-80 0
-75 0
-77 0
-72 0
-74 0
-69 0
-71 0
-66 0
-68 0
-59 0
-65 0
